echo

memory stack 1000 mb heap 200 mb global 250 mb noverify
start {}
title "{}"

charge 0

geometry noautoz
  symmetry c1
  load {}
end

################### 3-21g&LANL2TZ/pbe0

basis "ao basis"
  * library 3-21g except Cu
  Cu library LANL2DZ_ecp
end

ecp
  Cu library LANL2DZ_ecp
end

dft
  direct
  iterations 3000
  xc pbe0
end

task dft energy


#################### 6-31g&LANL2TZ/pbe0

basis "ao basis"
   * library 6-31g except Cu
   Cu library LANL2DZ_ecp
end

ecp
  Cu library LANL2DZ_ecp
end

dft
  direct
  iterations 3000
  xc pbe0
end

task dft energy

